c is-unsat
p cnf 12 80
-10 -12 -4 0
7 4 -10 0
5 -4 10 0
1 4 11 0
10 3 7 0
-9 7 -11 0
-4 -6 -10 0
1 -12 -11 0
-3 -11 6 0
1 -11 -2 0
-3 -4 7 0
5 -9 -6 0
1 10 -6 0
12 -1 -3 0
-3 -11 -7 0
-8 -6 -12 0
-8 -5 -6 0
10 -6 -7 0
-11 -9 1 0
3 4 -10 0
-1 -7 -6 0
-4 12 -6 0
10 2 -12 0
-3 -8 -2 0
-7 -6 -10 0
-1 5 -4 0
10 1 -2 0
-2 -6 -10 0
-7 -10 -12 0
1 7 10 0
5 -11 -12 0
-2 -8 12 0
12 4 -10 0
-12 5 -10 0
-10 -1 -8 0
-8 -1 -9 0
-12 -7 -9 0
1 9 4 0
-4 -3 1 0
9 -12 -2 0
8 -7 3 0
-5 8 -2 0
-3 -8 -7 0
-6 -7 10 0
-3 8 -4 0
8 5 -10 0
8 9 -12 0
-3 -5 -8 0
11 -7 10 0
-6 -7 -4 0
-12 8 -1 0
-11 7 4 0
-1 -9 -8 0
-5 -11 -10 0
-2 -8 6 0
2 -11 -4 0
7 -1 -2 0
-3 6 -10 0
10 -7 -1 0
4 5 12 0
-10 -11 -5 0
-7 -3 -10 0
-12 11 4 0
6 11 -10 0
3 -7 9 0
9 7 -12 0
-11 -2 -5 0
10 -11 1 0
4 -8 -11 0
-7 -6 4 0
-1 -7 2 0
-5 -4 -12 0
-3 -6 4 0
9 7 -11 0
-7 -2 -6 0
11 -3 -8 0
-4 1 5 0
12 7 -9 0
12 -6 -2 0
-8 -5 -6 0
